min: c;

c = 3.68255559134804 * u5_t4_h2 + 3.68255559134804 * u5_t7_h2 + 3.06271757467767 * u5_t4_h3 + 3.06271757467767 * u5_t7_h3 + 3.45627812546856 * u5_t1_h4 + 3.45627812546856 * u5_t3_h4 + 3.45627812546856 * u5_t4_h4 + 3.45627812546856 * u5_t7_h4 + 4.02803853654439 * u5_t1_h5 + 4.02803853654439 * u5_t3_h5 + 4.02803853654439 * u5_t4_h5 + 4.02803853654439 * u5_t7_h5 + 3.53047024505285 * u5_t1_h6 + 3.53047024505285 * u5_t3_h6 + 3.53047024505285 * u5_t4_h6 + 3.53047024505285 * u5_t6_h6 + 3.53047024505285 * u5_t7_h6 + 4.29234009190491 * u5_t1_h7 + 4.29234009190491 * u5_t3_h7 + 4.29234009190491 * u5_t4_h7 + 4.29234009190491 * u5_t6_h7 + 5.01899399964376 * u5_t1_h8 + 5.01899399964376 * u5_t3_h8 + 5.01899399964376 * u5_t4_h8 + 5.01899399964376 * u5_t6_h8 + 4.7831896810001 * u5_t1_h9 + 4.7831896810001 * u5_t3_h9 + 4.7831896810001 * u5_t4_h9 + 4.7831896810001 * u5_t6_h9 + 5.39649373091393 * u5_t1_h10 + 5.39649373091393 * u5_t3_h10 + 5.39649373091393 * u5_t4_h10 + 5.39649373091393 * u5_t6_h10 + 3.62164525353888 * u5_t1_h11 + 3.62164525353888 * u5_t3_h11 + 3.62164525353888 * u5_t4_h11 + 3.62164525353888 * u5_t6_h11 + 6.52511405066837 * u5_t1_h12 + 6.52511405066837 * u5_t3_h12 + 6.52511405066837 * u5_t4_h12 + 6.52511405066837 * u5_t6_h12 + 4.34263631482957 * u5_t1_h13 + 4.34263631482957 * u5_t3_h13 + 4.34263631482957 * u5_t4_h13 + 4.34263631482957 * u5_t6_h13 + 4.34263631482957 * u5_t8_h13 + 5.85722269007359 * u5_t1_h14 + 5.85722269007359 * u5_t3_h14 + 5.85722269007359 * u5_t4_h14 + 5.85722269007359 * u5_t6_h14 + 5.85722269007359 * u5_t8_h14 + 6.38160238785678 * u5_t1_h15 + 6.38160238785678 * u5_t3_h15 + 6.38160238785678 * u5_t4_h15 + 6.38160238785678 * u5_t6_h15 + 6.38160238785678 * u5_t8_h15 + 6.38160238785678 * u5_t9_h15 + 6.11551929701169 * u5_t1_h16 + 6.11551929701169 * u5_t3_h16 + 6.11551929701169 * u5_t4_h16 + 6.11551929701169 * u5_t5_h16 + 6.11551929701169 * u5_t6_h16 + 6.11551929701169 * u5_t8_h16 + 6.11551929701169 * u5_t9_h16 + 6.29475554382194 * u5_t1_h17 + 6.29475554382194 * u5_t5_h17 + 6.29475554382194 * u5_t6_h17 + 6.29475554382194 * u5_t8_h17 + 6.29475554382194 * u5_t9_h17 + 6.29475554382194 * u5_t10_h17 + 6.5131445728803 * u5_t1_h18 + 6.5131445728803 * u5_t2_h18 + 6.5131445728803 * u5_t5_h18 + 6.5131445728803 * u5_t6_h18 + 6.5131445728803 * u5_t9_h18 + 6.5131445728803 * u5_t10_h18 + 5.25018950601471 * u5_t1_h19 + 5.25018950601471 * u5_t2_h19 + 5.25018950601471 * u5_t5_h19 + 5.25018950601471 * u5_t9_h19 + 5.25018950601471 * u5_t10_h19 + 5.913804588632 * u5_t1_h20 + 5.913804588632 * u5_t2_h20 + 5.913804588632 * u5_t5_h20 + 5.913804588632 * u5_t9_h20 + 5.913804588632 * u5_t10_h20 + 5.12382685690879 * u5_t2_h21 + 5.12382685690879 * u5_t5_h21 + 5.12382685690879 * u5_t9_h21 + 5.12382685690879 * u5_t10_h21 + 5.62943812228955 * u5_t2_h22 + 5.62943812228955 * u5_t5_h22 + 5.62943812228955 * u5_t9_h22 + 5.62943812228955 * u5_t10_h22 + 5.75354475562452 * u5_t5_h23 + 5.75354475562452 * u5_t9_h23 + 5.75354475562452 * u5_t10_h23;
0 <= u5_t1_h4 <= 1;
0 <= u5_t1_h5 <= 1;
0 <= u5_t1_h6 <= 1;
0 <= u5_t1_h7 <= 1;
0 <= u5_t1_h8 <= 1;
0 <= u5_t1_h9 <= 1;
0 <= u5_t1_h10 <= 1;
0 <= u5_t1_h11 <= 1;
0 <= u5_t1_h12 <= 1;
0 <= u5_t1_h13 <= 1;
0 <= u5_t1_h14 <= 1;
0 <= u5_t1_h15 <= 1;
0 <= u5_t1_h16 <= 1;
0 <= u5_t1_h17 <= 1;
0 <= u5_t1_h18 <= 1;
0 <= u5_t1_h19 <= 1;
0 <= u5_t1_h20 <= 1;
u5_t1_h4 + u5_t1_h5 + u5_t1_h6 + u5_t1_h7 + u5_t1_h8 + u5_t1_h9 + u5_t1_h10 + u5_t1_h11 + u5_t1_h12 + u5_t1_h13 + u5_t1_h14 + u5_t1_h15 + u5_t1_h16 + u5_t1_h17 + u5_t1_h18 + u5_t1_h19 + u5_t1_h20 = 1;
0 <= u5_t2_h18 <= 1;
0 <= u5_t2_h19 <= 1;
0 <= u5_t2_h20 <= 1;
0 <= u5_t2_h21 <= 1;
0 <= u5_t2_h22 <= 1;
u5_t2_h18 + u5_t2_h19 + u5_t2_h20 + u5_t2_h21 + u5_t2_h22 = 3;
0 <= u5_t3_h4 <= 1;
0 <= u5_t3_h5 <= 1;
0 <= u5_t3_h6 <= 1;
0 <= u5_t3_h7 <= 1;
0 <= u5_t3_h8 <= 1;
0 <= u5_t3_h9 <= 1;
0 <= u5_t3_h10 <= 1;
0 <= u5_t3_h11 <= 1;
0 <= u5_t3_h12 <= 1;
0 <= u5_t3_h13 <= 1;
0 <= u5_t3_h14 <= 1;
0 <= u5_t3_h15 <= 1;
0 <= u5_t3_h16 <= 1;
u5_t3_h4 + u5_t3_h5 + u5_t3_h6 + u5_t3_h7 + u5_t3_h8 + u5_t3_h9 + u5_t3_h10 + u5_t3_h11 + u5_t3_h12 + u5_t3_h13 + u5_t3_h14 + u5_t3_h15 + u5_t3_h16 = 1;
0 <= u5_t4_h2 <= 1;
0 <= u5_t4_h3 <= 1;
0 <= u5_t4_h4 <= 1;
0 <= u5_t4_h5 <= 1;
0 <= u5_t4_h6 <= 1;
0 <= u5_t4_h7 <= 1;
0 <= u5_t4_h8 <= 1;
0 <= u5_t4_h9 <= 1;
0 <= u5_t4_h10 <= 1;
0 <= u5_t4_h11 <= 1;
0 <= u5_t4_h12 <= 1;
0 <= u5_t4_h13 <= 1;
0 <= u5_t4_h14 <= 1;
0 <= u5_t4_h15 <= 1;
0 <= u5_t4_h16 <= 1;
u5_t4_h2 + u5_t4_h3 + u5_t4_h4 + u5_t4_h5 + u5_t4_h6 + u5_t4_h7 + u5_t4_h8 + u5_t4_h9 + u5_t4_h10 + u5_t4_h11 + u5_t4_h12 + u5_t4_h13 + u5_t4_h14 + u5_t4_h15 + u5_t4_h16 = 3;
0 <= u5_t5_h16 <= 1;
0 <= u5_t5_h17 <= 1;
0 <= u5_t5_h18 <= 1;
0 <= u5_t5_h19 <= 1;
0 <= u5_t5_h20 <= 1;
0 <= u5_t5_h21 <= 1;
0 <= u5_t5_h22 <= 1;
0 <= u5_t5_h23 <= 1;
u5_t5_h16 + u5_t5_h17 + u5_t5_h18 + u5_t5_h19 + u5_t5_h20 + u5_t5_h21 + u5_t5_h22 + u5_t5_h23 = 2;
0 <= u5_t6_h6 <= 1;
0 <= u5_t6_h7 <= 1;
0 <= u5_t6_h8 <= 1;
0 <= u5_t6_h9 <= 1;
0 <= u5_t6_h10 <= 1;
0 <= u5_t6_h11 <= 1;
0 <= u5_t6_h12 <= 1;
0 <= u5_t6_h13 <= 1;
0 <= u5_t6_h14 <= 1;
0 <= u5_t6_h15 <= 1;
0 <= u5_t6_h16 <= 1;
0 <= u5_t6_h17 <= 1;
0 <= u5_t6_h18 <= 1;
u5_t6_h6 + u5_t6_h7 + u5_t6_h8 + u5_t6_h9 + u5_t6_h10 + u5_t6_h11 + u5_t6_h12 + u5_t6_h13 + u5_t6_h14 + u5_t6_h15 + u5_t6_h16 + u5_t6_h17 + u5_t6_h18 = 2;
0 <= u5_t7_h2 <= 1;
0 <= u5_t7_h3 <= 1;
0 <= u5_t7_h4 <= 1;
0 <= u5_t7_h5 <= 1;
0 <= u5_t7_h6 <= 1;
u5_t7_h2 + u5_t7_h3 + u5_t7_h4 + u5_t7_h5 + u5_t7_h6 = 1;
0 <= u5_t8_h13 <= 1;
0 <= u5_t8_h14 <= 1;
0 <= u5_t8_h15 <= 1;
0 <= u5_t8_h16 <= 1;
0 <= u5_t8_h17 <= 1;
u5_t8_h13 + u5_t8_h14 + u5_t8_h15 + u5_t8_h16 + u5_t8_h17 = 3;
0 <= u5_t9_h15 <= 1;
0 <= u5_t9_h16 <= 1;
0 <= u5_t9_h17 <= 1;
0 <= u5_t9_h18 <= 1;
0 <= u5_t9_h19 <= 1;
0 <= u5_t9_h20 <= 1;
0 <= u5_t9_h21 <= 1;
0 <= u5_t9_h22 <= 1;
0 <= u5_t9_h23 <= 1;
u5_t9_h15 + u5_t9_h16 + u5_t9_h17 + u5_t9_h18 + u5_t9_h19 + u5_t9_h20 + u5_t9_h21 + u5_t9_h22 + u5_t9_h23 = 1;
0 <= u5_t10_h17 <= 1;
0 <= u5_t10_h18 <= 1;
0 <= u5_t10_h19 <= 1;
0 <= u5_t10_h20 <= 1;
0 <= u5_t10_h21 <= 1;
0 <= u5_t10_h22 <= 1;
0 <= u5_t10_h23 <= 1;
u5_t10_h17 + u5_t10_h18 + u5_t10_h19 + u5_t10_h20 + u5_t10_h21 + u5_t10_h22 + u5_t10_h23 = 1;
